(set-info :smt-lib-version 2.6)
(set-info :category "crafted")
(set-logic QF_FF)
(define-sort FF0 () (_ FiniteField 52435875175126190479447740508185965837690552500527637822603658699938581184513))
(declare-fun mul_n14_alt () FF0)
(declare-fun h_n5_alt () FF0)
(declare-fun mul_n13_alt () FF0)
(declare-fun g_n7_alt () FF0)
(declare-fun mul_n12_alt () FF0)
(declare-fun f_n1_alt () FF0)
(declare-fun mul_n11_alt () FF0)
(declare-fun e_n2_alt () FF0)
(declare-fun mul_n10_alt () FF0)
(declare-fun c_n4_alt () FF0)
(declare-fun b_n6_alt () FF0)
(declare-fun mul_n9_alt () FF0)
(declare-fun d_n3_alt () FF0)
(declare-fun a_n8_alt () FF0)
(declare-fun mul_n14 () FF0)
(declare-fun h_n5 () FF0)
(declare-fun mul_n13 () FF0)
(declare-fun g_n7 () FF0)
(declare-fun mul_n12 () FF0)
(declare-fun f_n1 () FF0)
(declare-fun mul_n11 () FF0)
(declare-fun e_n2 () FF0)
(declare-fun mul_n10 () FF0)
(declare-fun c_n4 () FF0)
(declare-fun b_n6 () FF0)
(declare-fun mul_n9 () FF0)
(declare-fun d_n3 () FF0)
(declare-fun a_n8 () FF0)
(declare-fun return_n0_alt () FF0)
(declare-fun return_n0 () FF0)
(assert 
  (let ((let0 mul_n14_alt))
  (let ((let1 h_n5_alt))
  (let ((let2 mul_n13_alt))
  (let ((let3 (ff.mul let2 let1)))
  (let ((let4 (= let3 let0)))
  (let ((let5 g_n7_alt))
  (let ((let6 mul_n12_alt))
  (let ((let7 (ff.mul let6 let5)))
  (let ((let8 (= let7 let2)))
  (let ((let9 f_n1_alt))
  (let ((let10 mul_n11_alt))
  (let ((let11 (ff.mul let10 let9)))
  (let ((let12 (= let11 let6)))
  (let ((let13 e_n2_alt))
  (let ((let14 mul_n10_alt))
  (let ((let15 (ff.mul let14 let13)))
  (let ((let16 (= let15 let10)))
  (let ((let17 c_n4_alt))
  (let ((let18 b_n6_alt))
  (let ((let19 (ff.mul let18 let17)))
  (let ((let20 (= let19 let14)))
  (let ((let21 mul_n9_alt))
  (let ((let22 (as ff1 FF0)))
  (let ((let23 (as ff52435875175126190479447740508185965837690552500527637822603658699938581184512 FF0)))
  (let ((let24 d_n3_alt))
  (let ((let25 (ff.mul let24 let23)))
  (let ((let26 (ff.add let25 let22)))
  (let ((let27 a_n8_alt))
  (let ((let28 (ff.mul let27 let26)))
  (let ((let29 (= let28 let21)))
  (let ((let30 (and let29 let20 let16 let12 let8 let4)))
  (let ((let31 mul_n14))
  (let ((let32 h_n5))
  (let ((let33 mul_n13))
  (let ((let34 (ff.mul let33 let32)))
  (let ((let35 (= let34 let31)))
  (let ((let36 g_n7))
  (let ((let37 mul_n12))
  (let ((let38 (ff.mul let37 let36)))
  (let ((let39 (= let38 let33)))
  (let ((let40 f_n1))
  (let ((let41 mul_n11))
  (let ((let42 (ff.mul let41 let40)))
  (let ((let43 (= let42 let37)))
  (let ((let44 e_n2))
  (let ((let45 mul_n10))
  (let ((let46 (ff.mul let45 let44)))
  (let ((let47 (= let46 let41)))
  (let ((let48 c_n4))
  (let ((let49 b_n6))
  (let ((let50 (ff.mul let49 let48)))
  (let ((let51 (= let50 let45)))
  (let ((let52 mul_n9))
  (let ((let53 d_n3))
  (let ((let54 (ff.mul let53 let23)))
  (let ((let55 (ff.add let54 let22)))
  (let ((let56 a_n8))
  (let ((let57 (ff.mul let56 let55)))
  (let ((let58 (= let57 let52)))
  (let ((let59 (and let58 let51 let47 let43 let39 let35)))
  (let ((let60 return_n0_alt))
  (let ((let61 return_n0))
  (let ((let62 (= let61 let60)))
  (let ((let63 (not let62)))
  (let ((let64 (= let36 let5)))
  (let ((let65 (= let53 let24)))
  (let ((let66 (= let49 let18)))
  (let ((let67 (= let48 let17)))
  (let ((let68 (= let44 let13)))
  (let ((let69 (= let56 let27)))
  (let ((let70 (= let32 let1)))
  (let ((let71 (= let40 let9)))
  (let ((let72 (and let71 let70 let69 let68 let67 let66 let65 let64)))
  (let ((let73 (and let72 let63 let59 let30)))
  let73
))))))))))))))))))))))))))))))))))))))))))))))))))))))))))))))))))))))))))
)
(check-sat)
